W=3;
H=7;

MAX_TIME=26;
MAX_TRACKS=7;

TARGET=(7,3);

TRAINS=[(1,2,DOWN),(6,2,TOP)];

INIT_POS=[
(1,2,STRAIGHT_TD),
(3,1,STRAIGHT_TD),
(3,2,EMPTY),
(3,3,STRAIGHT_TD),
(4,1,DSWITCH_D_T_R),
(4,3,DSWITCH_D_T_L),
(6,2,STRAIGHT_TD),
(7,2,CORNER_TR),
(7,3,STRAIGHT_RL),
];
TUNNEL_PAIRS=[];

GATES=[
(7,2,1,false),
];
ACTIVATIONS=[
(3,1,1),
(3,3,2),
];

DSWITCHES=[
(4,1,2),
(4,3,1),
];
STATIONS=[];
